CMD:
./solvers/bin/cadical --plain --no-reduce -t 1600 ./data/cnfs//oski2b3i/oski2b3i.17.cnf

c --- [ banner ] -------------------------------------------------------------
c 
c CaDiCaL SAT Solver
c Copyright (c) 2016-2024
c A. Biere, M. Fleury, N. Froleyks, K. Fazekas, F. Pollitt, T. Faller
c JKU Linz, University of Freiburg, TU Wien
c 
c Version 2.1.3 5296d3d2a9bf48c154ab2acb5e44625776d821bf
c g++ (Gentoo 12.3.1_p20230526 p2) 12.3.1 20230526 -Wall -Wextra -O3 -DNDEBUG
c Sat Aug 9 07:26:21 PDT 2025 Linux cedar2.int.cedar.computecanada.ca 5.14.0-362.24.2.el9_3.x86_64 x86_64
c 
c --- [ limit ] --------------------------------------------------------------
c 
c setting time limit to 1600 seconds real time (due to '-t 1600')
c 
c --- [ parsing input ] ------------------------------------------------------
c 
c reading DIMACS file from './data/cnfs//oski2b3i/oski2b3i.17.cnf'
c opening file to read './data/cnfs//oski2b3i/oski2b3i.17.cnf'
c found 'p cnf 3429310 9549977' header
c parsed 9549977 clauses in 1.77 seconds process time
c 
c --- [ options ] ------------------------------------------------------------
c 
c   --compact=false                (different from default 'true')
c   --decompose=false              (different from default 'true')
c   --deduplicate=false            (different from default 'true')
c   --elim=false                   (different from default 'true')
c   --probe=false                  (different from default 'true')
c   --reduce=false                 (different from default 'true')
c   --subsume=false                (different from default 'true')
c   --ternary=false                (different from default 'true')
c   --transred=false               (different from default 'true')
c   --vivify=false                 (different from default 'true')
c 
c --- [ solving ] ------------------------------------------------------------
c 
c time measured in process time since initialization
c 
c  seconds    reductions  redundant   irredundant
c          MB     restarts       trail         variables
c            level   conflicts       glue            remaining
c 
c *  1.77 1419  0 0   0    0    0  0% 0 8428422 1575800 46%
c l  2.06 1437  0 0   0    0    0  0% 0 8428422 1575800 46%
c 1  2.06 1437  0 0   0    0    0  0% 0 8428422 1575800 46%
c 
c --- [ result ] -------------------------------------------------------------
c 
s SATISFIABLE
v -1 -2 -3 -4 -5 -6 -7 -8 -9 -10 -11 -12 -13 -14 -15 -16 -17 -18 -19 -20 -21
v -22 -23 -24 -25 -26 -27 -28 -29 -30 -31 -32 -33 -34 -35 -36 -37 -38 -39 -40
v -41 -42 -43 -44 -45 -46 -47 -48 -49 -50 -51 -52 -53 -54 -55 -56 -57 -58 -59
v -60 -61 -62 -63 -64 -65 -66 -67 -68 -69 -70 -71 -72 -73 -74 -75 -76 -77 -78
v -79 -80 -81 -82 -83 -84 -85 -86 -87 -88 -89 -90 -91 -92 -93 -94 -95 -96 -97
v -98 -99 -100 -101 -102 -103 -104 -105 -106 -107 -108 -109 -110 -111 -112
v -113 -114 -115 -116 -117 -118 -119 -120 -121 -122 -123 -124 -125 -126 -127
v -128 -129 -130 -131 -132 -133 -134 -135 -136 -137 -138 -139 -140 -141 -142
v -143 -144 -145 -146 -147 -148 -149 -150 -151 -152 -153 -154 -155 -156 -157
v -158 -159 -160 -161 -162 -163 -164 -165 -166 -167 -168 -169 -170 -171 -172
v -173 -174 -175 -176 -177 -178 -179 -180 -181 -182 -183 -184 -185 -186 -187
v -188 -189 -190 -191 -192 -193 -194 -195 -196 -197 -198 -199 -200 -201 -202
v -203 -204 -205 -206 -207 -208 -209 -210 -211 -212 -213 -214 -215 -216 -217
v -218 -219 -220 -221 -222 -223 -224 -225 -226 -227 -228 -229 -230 -231 -232
v -233 -234 -235 -236 -237 -238 -239 -240 -241 -242 -243 -244 -245 -246 -247
v -248 -249 -250 -251 -252 -253 -254 -255 -256 -257 -258 -259 -260 -261 -262
v -263 -264 -265 -266 -267 -268 -269 -270 -271 -272 -273 -274 -275 -276 -277
v -278 -279 -280 -281 -282 -283 -284 -285 -286 -287 -288 -289 -290 -291 -292
v -293 -294 -295 -296 -297 -298 -299 -300 -301 -302 -303 -304 -305 -306 -307
v -308 -309 -310 -311 -312 -313 -314 -315 -316 -317 -318 -319 -320 -321 -322
v -323 -324 -325 -326 -327 -328 -329 -330 -331 -332 -333 -334 -335 -336 -337
v -338 -339 -340 -341 -342 -343 -344 -345 -346 -347 -348 -349 -350 -351 -352
v -353 -354 -355 -356 -357 -358 -359 -360 -361 -362 -363 -364 -365 -366 -367
v -368 -369 -370 -371 -372 -373 -374 -375 -376 -377 -378 -379 -380 -381 -382
v -383 -384 -385 -386 -387 -388 -389 -390 -391 -392 -393 -394 -395 -396 -397
v -398 -399 -400 -401 -402 -403 -404 -405 -406 -407 -408 -409 -410 -411 -412
v -413 -414 -415 -416 -417 -418 -419 -420 -421 -422 -423 -424 -425 -426 -427
v -428 -429 -430 -431 -432 -433 -434 -435 -436 -437 -438 -439 -440 -441 -442
v -443 -444 -445 -446 -447 -448 -449 -450 -451 -452 -453 -454 -455 -456 -457
v -458 -459 -460 -461 -462 -463 -464 -465 -466 -467 -468 -469 -470 -471 -472
v -473 -474 -475 -476 -477 -478 -479 -480 -481 -482 -483 -484 -485 -486 -487
v -488 -489 -490 -491 -492 -493 -494 -495 -496 -497 -498 -499 -500 -501 -502
v -503 -504 -505 -506 -507 -508 -509 -510 -511 -512 -513 -514 -515 -516 -517
v -518 -519 -520 -521 -522 -523 -524 -525 -526 -527 -528 -529 -530 -531 -532
v -533 -534 -535 -536 -537 -538 -539 -540 -541 -542 -543 -544 -545 -546 -547
v -548 -549 -550 -551 -552 -553 -554 -555 -556 -557 -558 -559 -560 -561 -562
v -563 -564 -565 -566 -567 -568 -569 -570 -571 -572 -573 -574 -575 -576 -577
v -578 -579 -580 -581 -582 -583 -584 -585 -586 -587 -588 -589 -590 -591 -592
v -593 -594 -595 -596 -597 -598 -599 -600 -601 -602 -603 -604 -605 -606 -607
v -608 -609 -610 -611 -612 -613 -614 -615 -616 -617 -618 -619 -620 -621 -622
v -623 -624 -625 -626 -627 -628 -629 -630 -631 -632 -633 -634 -635 -636 -637
v -638 -639 -640 -641 -642 -643 -644 -645 -646 -647 -648 -649 -650 -651 -652
v -653 -654 -655 -656 -657 -658 -659 -660 -661 -662 -663 -664 -665 -666 -667
v -668 -669 -670 -671 -672 -673 -674 -675 -676 -677 -678 -679 -680 -681 -682
v -683 -684 -685 -686 -687 -688 -689 -690 -691 -692 -693 -694 -695 -696 -697
v -698 -699 -700 -701 -702 -703 -704 -705 -706 -707 -708 -709 -710 -711 -712
v -713 -714 -715 -716 -717 -718 -719 -720 -721 -722 -723 -724 -725 -726 -727
... skipped 394164 lines ...
v -3428801 -3428802 -3428803 -3428804 3428805 -3428806 -3428807 -3428808
v -3428809 3428810 3428811 -3428812 -3428813 3428814 -3428815 -3428816
v -3428817 3428818 3428819 -3428820 -3428821 -3428822 -3428823 -3428824
v -3428825 3428826 3428827 3428828 -3428829 -3428830 -3428831 -3428832
v -3428833 -3428834 3428835 -3428836 -3428837 -3428838 -3428839 -3428840
v -3428841 -3428842 -3428843 -3428844 -3428845 3428846 3428847 -3428848
v -3428849 -3428850 -3428851 3428852 -3428853 -3428854 -3428855 -3428856
v 3428857 3428858 -3428859 -3428860 3428861 -3428862 -3428863 -3428864 3428865
v 3428866 -3428867 -3428868 -3428869 -3428870 -3428871 -3428872 3428873
v 3428874 3428875 -3428876 -3428877 -3428878 -3428879 -3428880 -3428881
v 3428882 -3428883 -3428884 -3428885 -3428886 -3428887 -3428888 -3428889
v -3428890 -3428891 -3428892 3428893 3428894 -3428895 -3428896 -3428897
v -3428898 3428899 -3428900 -3428901 -3428902 -3428903 3428904 3428905
v -3428906 -3428907 3428908 -3428909 -3428910 -3428911 3428912 3428913
v -3428914 -3428915 -3428916 -3428917 -3428918 -3428919 3428920 3428921
v 3428922 -3428923 -3428924 -3428925 -3428926 -3428927 -3428928 3428929
v -3428930 -3428931 -3428932 -3428933 -3428934 -3428935 -3428936 -3428937
v -3428938 -3428939 3428940 3428941 -3428942 -3428943 -3428944 -3428945
v 3428946 -3428947 -3428948 -3428949 -3428950 3428951 3428952 -3428953
v -3428954 3428955 -3428956 -3428957 -3428958 3428959 3428960 -3428961
v -3428962 -3428963 -3428964 -3428965 -3428966 3428967 3428968 3428969
v -3428970 -3428971 -3428972 -3428973 -3428974 -3428975 3428976 -3428977
v -3428978 -3428979 -3428980 -3428981 -3428982 -3428983 -3428984 -3428985
v -3428986 3428987 3428988 -3428989 -3428990 -3428991 -3428992 3428993
v -3428994 -3428995 -3428996 -3428997 3428998 3428999 -3429000 -3429001
v 3429002 -3429003 -3429004 -3429005 3429006 3429007 -3429008 -3429009
v -3429010 -3429011 -3429012 -3429013 3429014 3429015 3429016 -3429017
v -3429018 -3429019 -3429020 -3429021 -3429022 3429023 -3429024 -3429025
v -3429026 -3429027 -3429028 -3429029 -3429030 -3429031 -3429032 -3429033
v 3429034 3429035 -3429036 -3429037 -3429038 -3429039 3429040 -3429041
v -3429042 -3429043 -3429044 3429045 3429046 -3429047 -3429048 3429049
v -3429050 -3429051 -3429052 3429053 3429054 -3429055 -3429056 -3429057
v -3429058 -3429059 -3429060 3429061 3429062 3429063 -3429064 -3429065
v -3429066 -3429067 -3429068 -3429069 3429070 -3429071 -3429072 -3429073
v -3429074 -3429075 -3429076 -3429077 -3429078 -3429079 -3429080 3429081
v 3429082 -3429083 -3429084 -3429085 -3429086 3429087 -3429088 -3429089
v -3429090 -3429091 3429092 3429093 -3429094 -3429095 3429096 -3429097
v -3429098 -3429099 3429100 3429101 -3429102 -3429103 -3429104 -3429105
v -3429106 -3429107 3429108 3429109 3429110 -3429111 -3429112 -3429113
v -3429114 -3429115 -3429116 3429117 -3429118 -3429119 -3429120 -3429121
v -3429122 -3429123 -3429124 -3429125 -3429126 -3429127 3429128 3429129
v -3429130 -3429131 -3429132 -3429133 3429134 -3429135 -3429136 -3429137
v -3429138 3429139 3429140 -3429141 -3429142 3429143 -3429144 -3429145
v -3429146 3429147 3429148 -3429149 -3429150 -3429151 -3429152 3429153 3429154
v -3429155 -3429156 -3429157 -3429158 3429159 3429160 -3429161 -3429162
v -3429163 -3429164 3429165 3429166 -3429167 -3429168 -3429169 -3429170
v -3429171 3429172 3429173 -3429174 -3429175 -3429176 -3429177 -3429178
v 3429179 3429180 -3429181 -3429182 -3429183 -3429184 -3429185 -3429186
v -3429187 -3429188 -3429189 3429190 3429191 -3429192 -3429193 -3429194
v -3429195 -3429196 -3429197 -3429198 -3429199 -3429200 3429201 3429202
v -3429203 -3429204 -3429205 -3429206 -3429207 -3429208 -3429209 -3429210
v -3429211 3429212 3429213 -3429214 -3429215 -3429216 -3429217 -3429218
v -3429219 -3429220 -3429221 -3429222 3429223 3429224 -3429225 -3429226
v -3429227 -3429228 -3429229 -3429230 -3429231 -3429232 -3429233 3429234
v 3429235 -3429236 -3429237 -3429238 -3429239 -3429240 -3429241 -3429242
v -3429243 -3429244 3429245 3429246 -3429247 -3429248 -3429249 -3429250
v -3429251 -3429252 -3429253 -3429254 -3429255 3429256 3429257 -3429258
v -3429259 -3429260 -3429261 -3429262 -3429263 -3429264 -3429265 -3429266
v 3429267 3429268 -3429269 -3429270 3429271 -3429272 3429273 3429274 -3429275
v -3429276 -3429277 -3429278 -3429279 -3429280 -3429281 3429282 3429283
v -3429284 -3429285 -3429286 -3429287 3429288 -3429289 -3429290 -3429291
v -3429292 -3429293 3429294 -3429295 -3429296 -3429297 -3429298 -3429299
v -3429300 3429301 3429302 -3429303 3429304 -3429305 -3429306 -3429307
v -3429308 3429309 -3429310 0
c 
c --- [ run-time profiling ] -------------------------------------------------
c 
c process time taken by individual solving procedures
c (percentage relative to process time for solving)
c 
c         1.77  597.22% parse
c         0.30   99.96% search
c         0.30   99.96% lucky
c         0.00    0.00% simplify
c   =================================
c         0.30   13.27% solve
c 
c last line shows process time for solving
c (percentage relative to total process time)
c 
c --- [ statistics ] ---------------------------------------------------------
c 
c fixed:                   1853510        54.05 %  of all variables
c lucky:                         1       100.00 %  of tried
c minimized:                     0         0.00 %  learned literals
c shrunken:                      0         0.00 %  learned literals
c minishrunken:                  0         0.00 %  learned literals
c propagations:            1853510         6.27 M  per second
c 
c seconds are measured in process time for solving
c 
c --- [ resources ] ----------------------------------------------------------
c 
c total process time since initialization:         2.23    seconds
c total real time since initialization:            2.27    seconds
c maximum resident set size of process:         1441.23    MB
c 
c --- [ shutting down ] ------------------------------------------------------
c 
c exit 10
